p cnf 227 751
c Polynomial has 20 variables and 207 monomials
c Original variables from 1 to 20
c Monomials variables from 21 to 227
c p weight 1 0 0
c p weight -1 0 0
c p weight 2 0 0
c p weight -2 0 0
c p weight 3 0 0
c p weight -3 0 0
c p weight 4 0 0
c p weight -4 0 0
c p weight 5 0 0
c p weight -5 0 0
c p weight 6 0 0
c p weight -6 0 0
c p weight 7 0 0
c p weight -7 0 0
c p weight 8 0 0
c p weight -8 0 0
c p weight 9 0 0
c p weight -9 0 0
c p weight 10 0 0
c p weight -10 0 0
c p weight 11 0 0
c p weight -11 0 0
c p weight 12 0 0
c p weight -12 0 0
c p weight 13 0 0
c p weight -13 0 0
c p weight 14 0 0
c p weight -14 0 0
c p weight 15 0 0
c p weight -15 0 0
c p weight 16 0 0
c p weight -16 0 0
c p weight 17 0 0
c p weight -17 0 0
c p weight 18 0 0
c p weight -18 0 0
c p weight 19 0 0
c p weight -19 0 0
c p weight 20 0 0
c p weight -20 0 0
c p weight 21 64 0
c p weight -21 0 0
21 -1 -2 -3 -4 0
-21 1 0
-21 2 0
-21 3 0
-21 4 0
c p weight 22 64 0
c p weight -22 0 0
22 -1 -2 -4 -5 0
-22 1 0
-22 2 0
-22 4 0
-22 5 0
c p weight 23 128 0
c p weight -23 0 0
23 -2 -3 -4 -5 0
-23 2 0
-23 3 0
-23 4 0
-23 5 0
c p weight 24 64 0
c p weight -24 0 0
24 -2 -3 -5 -6 0
-24 2 0
-24 3 0
-24 5 0
-24 6 0
c p weight 25 128 0
c p weight -25 0 0
25 -3 -4 -5 -6 0
-25 3 0
-25 4 0
-25 5 0
-25 6 0
c p weight 26 64 0
c p weight -26 0 0
26 -3 -4 -6 -7 0
-26 3 0
-26 4 0
-26 6 0
-26 7 0
c p weight 27 128 0
c p weight -27 0 0
27 -4 -5 -6 -7 0
-27 4 0
-27 5 0
-27 6 0
-27 7 0
c p weight 28 64 0
c p weight -28 0 0
28 -4 -5 -7 -8 0
-28 4 0
-28 5 0
-28 7 0
-28 8 0
c p weight 29 128 0
c p weight -29 0 0
29 -5 -6 -7 -8 0
-29 5 0
-29 6 0
-29 7 0
-29 8 0
c p weight 30 64 0
c p weight -30 0 0
30 -5 -6 -8 -9 0
-30 5 0
-30 6 0
-30 8 0
-30 9 0
c p weight 31 128 0
c p weight -31 0 0
31 -6 -7 -8 -9 0
-31 6 0
-31 7 0
-31 8 0
-31 9 0
c p weight 32 64 0
c p weight -32 0 0
32 -6 -7 -9 -10 0
-32 6 0
-32 7 0
-32 9 0
-32 10 0
c p weight 33 128 0
c p weight -33 0 0
33 -7 -8 -9 -10 0
-33 7 0
-33 8 0
-33 9 0
-33 10 0
c p weight 34 64 0
c p weight -34 0 0
34 -7 -8 -10 -11 0
-34 7 0
-34 8 0
-34 10 0
-34 11 0
c p weight 35 128 0
c p weight -35 0 0
35 -8 -9 -10 -11 0
-35 8 0
-35 9 0
-35 10 0
-35 11 0
c p weight 36 64 0
c p weight -36 0 0
36 -8 -9 -11 -12 0
-36 8 0
-36 9 0
-36 11 0
-36 12 0
c p weight 37 128 0
c p weight -37 0 0
37 -9 -10 -11 -12 0
-37 9 0
-37 10 0
-37 11 0
-37 12 0
c p weight 38 64 0
c p weight -38 0 0
38 -9 -10 -12 -13 0
-38 9 0
-38 10 0
-38 12 0
-38 13 0
c p weight 39 128 0
c p weight -39 0 0
39 -10 -11 -12 -13 0
-39 10 0
-39 11 0
-39 12 0
-39 13 0
c p weight 40 64 0
c p weight -40 0 0
40 -10 -11 -13 -14 0
-40 10 0
-40 11 0
-40 13 0
-40 14 0
c p weight 41 128 0
c p weight -41 0 0
41 -11 -12 -13 -14 0
-41 11 0
-41 12 0
-41 13 0
-41 14 0
c p weight 42 64 0
c p weight -42 0 0
42 -11 -12 -14 -15 0
-42 11 0
-42 12 0
-42 14 0
-42 15 0
c p weight 43 128 0
c p weight -43 0 0
43 -12 -13 -14 -15 0
-43 12 0
-43 13 0
-43 14 0
-43 15 0
c p weight 44 64 0
c p weight -44 0 0
44 -12 -13 -15 -16 0
-44 12 0
-44 13 0
-44 15 0
-44 16 0
c p weight 45 128 0
c p weight -45 0 0
45 -13 -14 -15 -16 0
-45 13 0
-45 14 0
-45 15 0
-45 16 0
c p weight 46 64 0
c p weight -46 0 0
46 -13 -14 -16 -17 0
-46 13 0
-46 14 0
-46 16 0
-46 17 0
c p weight 47 128 0
c p weight -47 0 0
47 -14 -15 -16 -17 0
-47 14 0
-47 15 0
-47 16 0
-47 17 0
c p weight 48 64 0
c p weight -48 0 0
48 -14 -15 -17 -18 0
-48 14 0
-48 15 0
-48 17 0
-48 18 0
c p weight 49 128 0
c p weight -49 0 0
49 -15 -16 -17 -18 0
-49 15 0
-49 16 0
-49 17 0
-49 18 0
c p weight 50 64 0
c p weight -50 0 0
50 -15 -16 -18 -19 0
-50 15 0
-50 16 0
-50 18 0
-50 19 0
c p weight 51 128 0
c p weight -51 0 0
51 -16 -17 -18 -19 0
-51 16 0
-51 17 0
-51 18 0
-51 19 0
c p weight 52 64 0
c p weight -52 0 0
52 -16 -17 -19 -20 0
-52 16 0
-52 17 0
-52 19 0
-52 20 0
c p weight 53 64 0
c p weight -53 0 0
53 -17 -18 -19 -20 0
-53 17 0
-53 18 0
-53 19 0
-53 20 0
c p weight 54 -32 0
c p weight -54 0 0
54 -1 -2 -3 0
-54 1 0
-54 2 0
-54 3 0
c p weight 55 -64 0
c p weight -55 0 0
55 -1 -2 -4 0
-55 1 0
-55 2 0
-55 4 0
c p weight 56 -32 0
c p weight -56 0 0
56 -1 -2 -5 0
-56 1 0
-56 2 0
-56 5 0
c p weight 57 -32 0
c p weight -57 0 0
57 -1 -3 -4 0
-57 1 0
-57 3 0
-57 4 0
c p weight 58 -32 0
c p weight -58 0 0
58 -1 -4 -5 0
-58 1 0
-58 4 0
-58 5 0
c p weight 59 -96 0
c p weight -59 0 0
59 -2 -3 -4 0
-59 2 0
-59 3 0
-59 4 0
c p weight 60 -96 0
c p weight -60 0 0
60 -2 -3 -5 0
-60 2 0
-60 3 0
-60 5 0
c p weight 61 -32 0
c p weight -61 0 0
61 -2 -3 -6 0
-61 2 0
-61 3 0
-61 6 0
c p weight 62 -96 0
c p weight -62 0 0
62 -2 -4 -5 0
-62 2 0
-62 4 0
-62 5 0
c p weight 63 -32 0
c p weight -63 0 0
63 -2 -5 -6 0
-63 2 0
-63 5 0
-63 6 0
c p weight 64 -128 0
c p weight -64 0 0
64 -3 -4 -5 0
-64 3 0
-64 4 0
-64 5 0
c p weight 65 -96 0
c p weight -65 0 0
65 -3 -4 -6 0
-65 3 0
-65 4 0
-65 6 0
c p weight 66 -32 0
c p weight -66 0 0
66 -3 -4 -7 0
-66 3 0
-66 4 0
-66 7 0
c p weight 67 -96 0
c p weight -67 0 0
67 -3 -5 -6 0
-67 3 0
-67 5 0
-67 6 0
c p weight 68 -32 0
c p weight -68 0 0
68 -3 -6 -7 0
-68 3 0
-68 6 0
-68 7 0
c p weight 69 -128 0
c p weight -69 0 0
69 -4 -5 -6 0
-69 4 0
-69 5 0
-69 6 0
c p weight 70 -96 0
c p weight -70 0 0
70 -4 -5 -7 0
-70 4 0
-70 5 0
-70 7 0
c p weight 71 -32 0
c p weight -71 0 0
71 -4 -5 -8 0
-71 4 0
-71 5 0
-71 8 0
c p weight 72 -96 0
c p weight -72 0 0
72 -4 -6 -7 0
-72 4 0
-72 6 0
-72 7 0
c p weight 73 -32 0
c p weight -73 0 0
73 -4 -7 -8 0
-73 4 0
-73 7 0
-73 8 0
c p weight 74 -128 0
c p weight -74 0 0
74 -5 -6 -7 0
-74 5 0
-74 6 0
-74 7 0
c p weight 75 -96 0
c p weight -75 0 0
75 -5 -6 -8 0
-75 5 0
-75 6 0
-75 8 0
c p weight 76 -32 0
c p weight -76 0 0
76 -5 -6 -9 0
-76 5 0
-76 6 0
-76 9 0
c p weight 77 -96 0
c p weight -77 0 0
77 -5 -7 -8 0
-77 5 0
-77 7 0
-77 8 0
c p weight 78 -32 0
c p weight -78 0 0
78 -5 -8 -9 0
-78 5 0
-78 8 0
-78 9 0
c p weight 79 -128 0
c p weight -79 0 0
79 -6 -7 -8 0
-79 6 0
-79 7 0
-79 8 0
c p weight 80 -96 0
c p weight -80 0 0
80 -6 -7 -9 0
-80 6 0
-80 7 0
-80 9 0
c p weight 81 -32 0
c p weight -81 0 0
81 -6 -7 -10 0
-81 6 0
-81 7 0
-81 10 0
c p weight 82 -96 0
c p weight -82 0 0
82 -6 -8 -9 0
-82 6 0
-82 8 0
-82 9 0
c p weight 83 -32 0
c p weight -83 0 0
83 -6 -9 -10 0
-83 6 0
-83 9 0
-83 10 0
c p weight 84 -128 0
c p weight -84 0 0
84 -7 -8 -9 0
-84 7 0
-84 8 0
-84 9 0
c p weight 85 -96 0
c p weight -85 0 0
85 -7 -8 -10 0
-85 7 0
-85 8 0
-85 10 0
c p weight 86 -32 0
c p weight -86 0 0
86 -7 -8 -11 0
-86 7 0
-86 8 0
-86 11 0
c p weight 87 -96 0
c p weight -87 0 0
87 -7 -9 -10 0
-87 7 0
-87 9 0
-87 10 0
c p weight 88 -32 0
c p weight -88 0 0
88 -7 -10 -11 0
-88 7 0
-88 10 0
-88 11 0
c p weight 89 -128 0
c p weight -89 0 0
89 -8 -9 -10 0
-89 8 0
-89 9 0
-89 10 0
c p weight 90 -96 0
c p weight -90 0 0
90 -8 -9 -11 0
-90 8 0
-90 9 0
-90 11 0
c p weight 91 -32 0
c p weight -91 0 0
91 -8 -9 -12 0
-91 8 0
-91 9 0
-91 12 0
c p weight 92 -96 0
c p weight -92 0 0
92 -8 -10 -11 0
-92 8 0
-92 10 0
-92 11 0
c p weight 93 -32 0
c p weight -93 0 0
93 -8 -11 -12 0
-93 8 0
-93 11 0
-93 12 0
c p weight 94 -128 0
c p weight -94 0 0
94 -9 -10 -11 0
-94 9 0
-94 10 0
-94 11 0
c p weight 95 -96 0
c p weight -95 0 0
95 -9 -10 -12 0
-95 9 0
-95 10 0
-95 12 0
c p weight 96 -32 0
c p weight -96 0 0
96 -9 -10 -13 0
-96 9 0
-96 10 0
-96 13 0
c p weight 97 -96 0
c p weight -97 0 0
97 -9 -11 -12 0
-97 9 0
-97 11 0
-97 12 0
c p weight 98 -32 0
c p weight -98 0 0
98 -9 -12 -13 0
-98 9 0
-98 12 0
-98 13 0
c p weight 99 -128 0
c p weight -99 0 0
99 -10 -11 -12 0
-99 10 0
-99 11 0
-99 12 0
c p weight 100 -96 0
c p weight -100 0 0
100 -10 -11 -13 0
-100 10 0
-100 11 0
-100 13 0
c p weight 101 -32 0
c p weight -101 0 0
101 -10 -11 -14 0
-101 10 0
-101 11 0
-101 14 0
c p weight 102 -96 0
c p weight -102 0 0
102 -10 -12 -13 0
-102 10 0
-102 12 0
-102 13 0
c p weight 103 -32 0
c p weight -103 0 0
103 -10 -13 -14 0
-103 10 0
-103 13 0
-103 14 0
c p weight 104 -128 0
c p weight -104 0 0
104 -11 -12 -13 0
-104 11 0
-104 12 0
-104 13 0
c p weight 105 -96 0
c p weight -105 0 0
105 -11 -12 -14 0
-105 11 0
-105 12 0
-105 14 0
c p weight 106 -32 0
c p weight -106 0 0
106 -11 -12 -15 0
-106 11 0
-106 12 0
-106 15 0
c p weight 107 -96 0
c p weight -107 0 0
107 -11 -13 -14 0
-107 11 0
-107 13 0
-107 14 0
c p weight 108 -32 0
c p weight -108 0 0
108 -11 -14 -15 0
-108 11 0
-108 14 0
-108 15 0
c p weight 109 -128 0
c p weight -109 0 0
109 -12 -13 -14 0
-109 12 0
-109 13 0
-109 14 0
c p weight 110 -96 0
c p weight -110 0 0
110 -12 -13 -15 0
-110 12 0
-110 13 0
-110 15 0
c p weight 111 -32 0
c p weight -111 0 0
111 -12 -13 -16 0
-111 12 0
-111 13 0
-111 16 0
c p weight 112 -96 0
c p weight -112 0 0
112 -12 -14 -15 0
-112 12 0
-112 14 0
-112 15 0
c p weight 113 -32 0
c p weight -113 0 0
113 -12 -15 -16 0
-113 12 0
-113 15 0
-113 16 0
c p weight 114 -128 0
c p weight -114 0 0
114 -13 -14 -15 0
-114 13 0
-114 14 0
-114 15 0
c p weight 115 -96 0
c p weight -115 0 0
115 -13 -14 -16 0
-115 13 0
-115 14 0
-115 16 0
c p weight 116 -32 0
c p weight -116 0 0
116 -13 -14 -17 0
-116 13 0
-116 14 0
-116 17 0
c p weight 117 -96 0
c p weight -117 0 0
117 -13 -15 -16 0
-117 13 0
-117 15 0
-117 16 0
c p weight 118 -32 0
c p weight -118 0 0
118 -13 -16 -17 0
-118 13 0
-118 16 0
-118 17 0
c p weight 119 -128 0
c p weight -119 0 0
119 -14 -15 -16 0
-119 14 0
-119 15 0
-119 16 0
c p weight 120 -96 0
c p weight -120 0 0
120 -14 -15 -17 0
-120 14 0
-120 15 0
-120 17 0
c p weight 121 -32 0
c p weight -121 0 0
121 -14 -15 -18 0
-121 14 0
-121 15 0
-121 18 0
c p weight 122 -96 0
c p weight -122 0 0
122 -14 -16 -17 0
-122 14 0
-122 16 0
-122 17 0
c p weight 123 -32 0
c p weight -123 0 0
123 -14 -17 -18 0
-123 14 0
-123 17 0
-123 18 0
c p weight 124 -128 0
c p weight -124 0 0
124 -15 -16 -17 0
-124 15 0
-124 16 0
-124 17 0
c p weight 125 -96 0
c p weight -125 0 0
125 -15 -16 -18 0
-125 15 0
-125 16 0
-125 18 0
c p weight 126 -32 0
c p weight -126 0 0
126 -15 -16 -19 0
-126 15 0
-126 16 0
-126 19 0
c p weight 127 -96 0
c p weight -127 0 0
127 -15 -17 -18 0
-127 15 0
-127 17 0
-127 18 0
c p weight 128 -32 0
c p weight -128 0 0
128 -15 -18 -19 0
-128 15 0
-128 18 0
-128 19 0
c p weight 129 -128 0
c p weight -129 0 0
129 -16 -17 -18 0
-129 16 0
-129 17 0
-129 18 0
c p weight 130 -96 0
c p weight -130 0 0
130 -16 -17 -19 0
-130 16 0
-130 17 0
-130 19 0
c p weight 131 -32 0
c p weight -131 0 0
131 -16 -17 -20 0
-131 16 0
-131 17 0
-131 20 0
c p weight 132 -96 0
c p weight -132 0 0
132 -16 -18 -19 0
-132 16 0
-132 18 0
-132 19 0
c p weight 133 -32 0
c p weight -133 0 0
133 -16 -19 -20 0
-133 16 0
-133 19 0
-133 20 0
c p weight 134 -96 0
c p weight -134 0 0
134 -17 -18 -19 0
-134 17 0
-134 18 0
-134 19 0
c p weight 135 -32 0
c p weight -135 0 0
135 -17 -18 -20 0
-135 17 0
-135 18 0
-135 20 0
c p weight 136 -64 0
c p weight -136 0 0
136 -17 -19 -20 0
-136 17 0
-136 19 0
-136 20 0
c p weight 137 -32 0
c p weight -137 0 0
137 -18 -19 -20 0
-137 18 0
-137 19 0
-137 20 0
c p weight 138 32 0
c p weight -138 0 0
138 -1 -2 0
-138 1 0
-138 2 0
c p weight 139 24 0
c p weight -139 0 0
139 -1 -3 0
-139 1 0
-139 3 0
c p weight 140 32 0
c p weight -140 0 0
140 -1 -4 0
-140 1 0
-140 4 0
c p weight 141 24 0
c p weight -141 0 0
141 -1 -5 0
-141 1 0
-141 5 0
c p weight 142 64 0
c p weight -142 0 0
142 -2 -3 0
-142 2 0
-142 3 0
c p weight 143 80 0
c p weight -143 0 0
143 -2 -4 0
-143 2 0
-143 4 0
c p weight 144 64 0
c p weight -144 0 0
144 -2 -5 0
-144 2 0
-144 5 0
c p weight 145 24 0
c p weight -145 0 0
145 -2 -6 0
-145 2 0
-145 6 0
c p weight 146 96 0
c p weight -146 0 0
146 -3 -4 0
-146 3 0
-146 4 0
c p weight 147 104 0
c p weight -147 0 0
147 -3 -5 0
-147 3 0
-147 5 0
c p weight 148 64 0
c p weight -148 0 0
148 -3 -6 0
-148 3 0
-148 6 0
c p weight 149 24 0
c p weight -149 0 0
149 -3 -7 0
-149 3 0
-149 7 0
c p weight 150 128 0
c p weight -150 0 0
150 -4 -5 0
-150 4 0
-150 5 0
c p weight 151 104 0
c p weight -151 0 0
151 -4 -6 0
-151 4 0
-151 6 0
c p weight 152 64 0
c p weight -152 0 0
152 -4 -7 0
-152 4 0
-152 7 0
c p weight 153 24 0
c p weight -153 0 0
153 -4 -8 0
-153 4 0
-153 8 0
c p weight 154 128 0
c p weight -154 0 0
154 -5 -6 0
-154 5 0
-154 6 0
c p weight 155 104 0
c p weight -155 0 0
155 -5 -7 0
-155 5 0
-155 7 0
c p weight 156 64 0
c p weight -156 0 0
156 -5 -8 0
-156 5 0
-156 8 0
c p weight 157 24 0
c p weight -157 0 0
157 -5 -9 0
-157 5 0
-157 9 0
c p weight 158 128 0
c p weight -158 0 0
158 -6 -7 0
-158 6 0
-158 7 0
c p weight 159 104 0
c p weight -159 0 0
159 -6 -8 0
-159 6 0
-159 8 0
c p weight 160 64 0
c p weight -160 0 0
160 -6 -9 0
-160 6 0
-160 9 0
c p weight 161 24 0
c p weight -161 0 0
161 -6 -10 0
-161 6 0
-161 10 0
c p weight 162 128 0
c p weight -162 0 0
162 -7 -8 0
-162 7 0
-162 8 0
c p weight 163 104 0
c p weight -163 0 0
163 -7 -9 0
-163 7 0
-163 9 0
c p weight 164 64 0
c p weight -164 0 0
164 -7 -10 0
-164 7 0
-164 10 0
c p weight 165 24 0
c p weight -165 0 0
165 -7 -11 0
-165 7 0
-165 11 0
c p weight 166 128 0
c p weight -166 0 0
166 -8 -9 0
-166 8 0
-166 9 0
c p weight 167 104 0
c p weight -167 0 0
167 -8 -10 0
-167 8 0
-167 10 0
c p weight 168 64 0
c p weight -168 0 0
168 -8 -11 0
-168 8 0
-168 11 0
c p weight 169 24 0
c p weight -169 0 0
169 -8 -12 0
-169 8 0
-169 12 0
c p weight 170 128 0
c p weight -170 0 0
170 -9 -10 0
-170 9 0
-170 10 0
c p weight 171 104 0
c p weight -171 0 0
171 -9 -11 0
-171 9 0
-171 11 0
c p weight 172 64 0
c p weight -172 0 0
172 -9 -12 0
-172 9 0
-172 12 0
c p weight 173 24 0
c p weight -173 0 0
173 -9 -13 0
-173 9 0
-173 13 0
c p weight 174 128 0
c p weight -174 0 0
174 -10 -11 0
-174 10 0
-174 11 0
c p weight 175 104 0
c p weight -175 0 0
175 -10 -12 0
-175 10 0
-175 12 0
c p weight 176 64 0
c p weight -176 0 0
176 -10 -13 0
-176 10 0
-176 13 0
c p weight 177 24 0
c p weight -177 0 0
177 -10 -14 0
-177 10 0
-177 14 0
c p weight 178 128 0
c p weight -178 0 0
178 -11 -12 0
-178 11 0
-178 12 0
c p weight 179 104 0
c p weight -179 0 0
179 -11 -13 0
-179 11 0
-179 13 0
c p weight 180 64 0
c p weight -180 0 0
180 -11 -14 0
-180 11 0
-180 14 0
c p weight 181 24 0
c p weight -181 0 0
181 -11 -15 0
-181 11 0
-181 15 0
c p weight 182 128 0
c p weight -182 0 0
182 -12 -13 0
-182 12 0
-182 13 0
c p weight 183 104 0
c p weight -183 0 0
183 -12 -14 0
-183 12 0
-183 14 0
c p weight 184 64 0
c p weight -184 0 0
184 -12 -15 0
-184 12 0
-184 15 0
c p weight 185 24 0
c p weight -185 0 0
185 -12 -16 0
-185 12 0
-185 16 0
c p weight 186 128 0
c p weight -186 0 0
186 -13 -14 0
-186 13 0
-186 14 0
c p weight 187 104 0
c p weight -187 0 0
187 -13 -15 0
-187 13 0
-187 15 0
c p weight 188 64 0
c p weight -188 0 0
188 -13 -16 0
-188 13 0
-188 16 0
c p weight 189 24 0
c p weight -189 0 0
189 -13 -17 0
-189 13 0
-189 17 0
c p weight 190 128 0
c p weight -190 0 0
190 -14 -15 0
-190 14 0
-190 15 0
c p weight 191 104 0
c p weight -191 0 0
191 -14 -16 0
-191 14 0
-191 16 0
c p weight 192 64 0
c p weight -192 0 0
192 -14 -17 0
-192 14 0
-192 17 0
c p weight 193 24 0
c p weight -193 0 0
193 -14 -18 0
-193 14 0
-193 18 0
c p weight 194 128 0
c p weight -194 0 0
194 -15 -16 0
-194 15 0
-194 16 0
c p weight 195 104 0
c p weight -195 0 0
195 -15 -17 0
-195 15 0
-195 17 0
c p weight 196 64 0
c p weight -196 0 0
196 -15 -18 0
-196 15 0
-196 18 0
c p weight 197 24 0
c p weight -197 0 0
197 -15 -19 0
-197 15 0
-197 19 0
c p weight 198 128 0
c p weight -198 0 0
198 -16 -17 0
-198 16 0
-198 17 0
c p weight 199 104 0
c p weight -199 0 0
199 -16 -18 0
-199 16 0
-199 18 0
c p weight 200 64 0
c p weight -200 0 0
200 -16 -19 0
-200 16 0
-200 19 0
c p weight 201 24 0
c p weight -201 0 0
201 -16 -20 0
-201 16 0
-201 20 0
c p weight 202 96 0
c p weight -202 0 0
202 -17 -18 0
-202 17 0
-202 18 0
c p weight 203 80 0
c p weight -203 0 0
203 -17 -19 0
-203 17 0
-203 19 0
c p weight 204 32 0
c p weight -204 0 0
204 -17 -20 0
-204 17 0
-204 20 0
c p weight 205 64 0
c p weight -205 0 0
205 -18 -19 0
-205 18 0
-205 19 0
c p weight 206 24 0
c p weight -206 0 0
206 -18 -20 0
-206 18 0
-206 20 0
c p weight 207 32 0
c p weight -207 0 0
207 -19 -20 0
-207 19 0
-207 20 0
c p weight 208 -24 0
c p weight -208 0 0
208 -1 0
-208 1 0
c p weight 209 -52 0
c p weight -209 0 0
209 -2 0
-209 2 0
c p weight 210 -76 0
c p weight -210 0 0
210 -3 0
-210 3 0
c p weight 211 -104 0
c p weight -211 0 0
211 -4 0
-211 4 0
c p weight 212 -128 0
c p weight -212 0 0
212 -5 0
-212 5 0
c p weight 213 -128 0
c p weight -213 0 0
213 -6 0
-213 6 0
c p weight 214 -128 0
c p weight -214 0 0
214 -7 0
-214 7 0
c p weight 215 -128 0
c p weight -215 0 0
215 -8 0
-215 8 0
c p weight 216 -128 0
c p weight -216 0 0
216 -9 0
-216 9 0
c p weight 217 -128 0
c p weight -217 0 0
217 -10 0
-217 10 0
c p weight 218 -128 0
c p weight -218 0 0
218 -11 0
-218 11 0
c p weight 219 -128 0
c p weight -219 0 0
219 -12 0
-219 12 0
c p weight 220 -128 0
c p weight -220 0 0
220 -13 0
-220 13 0
c p weight 221 -128 0
c p weight -221 0 0
221 -14 0
-221 14 0
c p weight 222 -128 0
c p weight -222 0 0
222 -15 0
-222 15 0
c p weight 223 -128 0
c p weight -223 0 0
223 -16 0
-223 16 0
c p weight 224 -104 0
c p weight -224 0 0
224 -17 0
-224 17 0
c p weight 225 -76 0
c p weight -225 0 0
225 -18 0
-225 18 0
c p weight 226 -52 0
c p weight -226 0 0
226 -19 0
-226 19 0
c p weight 227 -24 0
c p weight -227 0 0
227 -20 0
-227 20 0
